Default LOCALE: LC_CTYPE=en_US.UTF-8;LC_NUMERIC=it_IT.UTF-8;LC_TIME=en_US.UTF-8;LC_COLLATE=en_US.UTF-8;LC_MONETARY=it_IT.UTF-8;LC_MESSAGES=en_US.UTF-8;LC_PAPER=it_IT.UTF-8;LC_NAME=it_IT.UTF-8;LC_ADDRESS=it_IT.UTF-8;LC_TELEPHONE=it_IT.UTF-8;LC_MEASUREMENT=it_IT.UTF-8;LC_IDENTIFICATION=it_IT.UTF-8

<<< setup, at 0s, took 1,54878e+09s


<<< generate, at 0s, took 0,00686002s

CPXPARAM_TimeLimit                               1
Tried aggregator 1 time.
MIP Presolve eliminated 19 rows and 19 columns.
Reduced MIP has 441 rows, 781 columns, and 2304 nonzeros.
Reduced MIP has 400 binaries, 381 generals, 0 SOSs, and 0 indicators.
Presolve time = 0,00 sec. (1,39 ticks)
Probing fixed 19 vars, tightened 0 bounds.
Probing time = 0,00 sec. (3,11 ticks)
Cover probing fixed 0 vars, tightened 361 bounds.
Tried aggregator 1 time.
MIP Presolve eliminated 21 rows and 39 columns.
MIP Presolve modified 362 coefficients.
Reduced MIP has 420 rows, 742 columns, and 2206 nonzeros.
Reduced MIP has 381 binaries, 361 generals, 0 SOSs, and 0 indicators.
Presolve time = 0,00 sec. (2,40 ticks)
Probing time = 0,01 sec. (2,68 ticks)
Clique table members: 40.
MIP emphasis: balance optimality and feasibility.
MIP search method: dynamic search.
Parallel mode: deterministic, using up to 4 threads.
Root relaxation solution time = 0,00 sec. (3,64 ticks)

        Nodes                                         Cuts/
   Node  Left     Objective  IInf  Best Integer    Best Bound    ItCnt     Gap

*     0+    0                           92,0731        0,0000           100,00%
      0     0       39,5366    43       92,0731       39,5366      253   57,06%
      0     0       39,8135    68       92,0731      Cuts: 67      311   56,76%
      0     0       41,9018    80       92,0731      Cuts: 28      418   54,49%
*     0+    0                           71,9081       41,9018            41,73%
      0     0       42,7406    97       71,9081      Cuts: 20      479   40,56%
      0     0       43,9547    80       71,9081      Cuts: 19      520   38,87%
      0     0       44,1186    89       71,9081      Cuts: 18      599   38,65%
*     0+    0                           45,9064       44,1186             3,89%
      0     0       44,1186    89       45,9064       Cuts: 9      620    3,89%
*     0+    0                           44,2095       44,1186             0,21%

Repeating presolve.
Tried aggregator 2 times.
MIP Presolve eliminated 301 rows and 618 columns.
MIP Presolve modified 2 coefficients.
Aggregator did 29 substitutions.
Reduced MIP has 90 rows, 95 columns, and 339 nonzeros.
Reduced MIP has 35 binaries, 60 generals, 0 SOSs, and 0 indicators.
Presolve time = 0,00 sec. (0,73 ticks)
Probing fixed 0 vars, tightened 9 bounds.
Probing time = 0,00 sec. (0,05 ticks)
Tried aggregator 1 time.
MIP Presolve modified 13 coefficients.
Reduced MIP has 90 rows, 95 columns, and 339 nonzeros.
Reduced MIP has 35 binaries, 60 generals, 0 SOSs, and 0 indicators.
Presolve time = 0,00 sec. (0,21 ticks)
Represolve time = 0,00 sec. (2,43 ticks)
Probing time = 0,00 sec. (0,05 ticks)
Clique table members: 22.
MIP emphasis: balance optimality and feasibility.
MIP search method: dynamic search.
Parallel mode: deterministic, using up to 4 threads.
Root relaxation solution time = 0,00 sec. (1,21 ticks)

        Nodes                                         Cuts/
   Node  Left     Objective  IInf  Best Integer    Best Bound    ItCnt     Gap

*     0+    0                           44,2095       44,1186             0,21%
      0     0       44,1186    61       44,2095       44,1186      760    0,21%

Cover cuts applied:  7
Implied bound cuts applied:  17
Flow cuts applied:  11
Mixed integer rounding cuts applied:  3
Zero-half cuts applied:  9
Multi commodity flow cuts applied:  1
Lift and project cuts applied:  16
Gomory fractional cuts applied:  7

Root node processing (before b&c):
  Real time             =    0,44 sec. (264,31 ticks)
Parallel b&c, 4 threads:
  Real time             =    0,00 sec. (0,00 ticks)
  Sync time (average)   =    0,00 sec.
  Wait time (average)   =    0,00 sec.
                          ------------
Total (root+branch&cut) =    0,44 sec. (264,31 ticks)

<<< solve, at 1,57s, took 0,443438s


OBJECTIVE: 44.20949
01/29/2019 17:12:14 513
solving time ~= 447.820068359
Done
 [[0 0 0 0 9 0 0 0 0 0 0 0 0 0 0 0 0 0 0 0]
         [0 0 0 0 0 6 0 0 0 0 0 0 0 0 0 0 0 0 0 0]
         [10 0 0 0 0 0 0 0 0 0 0 0 0 0 0 0 0 0 0 0]
         [0 7 0 0 0 0 0 0 0 0 0 0 0 0 0 0 0 0 0 0]
         [0 0 0 8 0 0 0 0 0 0 0 0 0 0 0 0 0 0 0 0]
         [0 0 0 0 0 0 0 0 0 5 0 0 0 0 0 0 0 0 0 0]
         [0 0 11 0 0 0 0 0 0 0 0 0 0 0 0 0 0 0 0 0]
         [0 0 0 0 0 0 12 0 0 0 0 0 0 0 0 0 0 0 0 0]
         [0 0 0 0 0 0 0 13 0 0 0 0 0 0 0 0 0 0 0 0]
         [0 0 0 0 0 0 0 0 0 0 0 4 0 0 0 0 0 0 0 0]
         [0 0 0 0 0 0 0 0 14 0 0 0 0 0 0 0 0 0 0 0]
         [0 0 0 0 0 0 0 0 0 0 0 0 0 0 3 0 0 0 0 0]
         [0 0 0 0 0 0 0 0 0 0 0 0 0 16 0 0 0 0 0 0]
         [0 0 0 0 0 0 0 0 0 0 15 0 0 0 0 0 0 0 0 0]
         [0 0 0 0 0 0 0 0 0 0 0 0 0 0 0 2 0 0 0 0]
         [0 0 0 0 0 0 0 0 0 0 0 0 0 0 0 0 1 0 0 0]
         [0 0 0 0 0 0 0 0 0 0 0 0 0 0 0 0 0 0 0 20]
         [0 0 0 0 0 0 0 0 0 0 0 0 17 0 0 0 0 0 0 0]
         [0 0 0 0 0 0 0 0 0 0 0 0 0 0 0 0 0 18 0 0]
         [0 0 0 0 0 0 0 0 0 0 0 0 0 0 0 0 0 0 19 0]]

<<< post process, at 1,57s, took 0,00107503s

// solution (integer optimal, tolerance) with objective 44.2094900386406
// Quality Incumbent solution:
// MILP objective                                 4,4209490039e+01
// MILP solution norm |x| (Total, Max)            2,30000e+02  2,00000e+01
// MILP solution error (Ax=b) (Total, Max)        0,00000e+00  0,00000e+00
// MILP x bound error (Total, Max)                0,00000e+00  0,00000e+00
// MILP x integrality error (Total, Max)          0,00000e+00  0,00000e+00
// MILP slack bound error (Total, Max)            0,00000e+00  0,00000e+00
// 

y = [[0
             0 0 0 1 0 0 0 0 0 0 0 0 0 0 0 0 0 0 0]
             [0 0 0 0 0 1 0 0 0 0 0 0 0 0 0 0 0 0 0 0]
             [1 0 0 0 0 0 0 0 0 0 0 0 0 0 0 0 0 0 0 0]
             [0 1 0 0 0 0 0 0 0 0 0 0 0 0 0 0 0 0 0 0]
             [0 0 0 1 0 0 0 0 0 0 0 0 0 0 0 0 0 0 0 0]
             [0 0 0 0 0 0 0 0 0 1 0 0 0 0 0 0 0 0 0 0]
             [0 0 1 0 0 0 0 0 0 0 0 0 0 0 0 0 0 0 0 0]
             [0 0 0 0 0 0 1 0 0 0 0 0 0 0 0 0 0 0 0 0]
             [0 0 0 0 0 0 0 1 0 0 0 0 0 0 0 0 0 0 0 0]
             [0 0 0 0 0 0 0 0 0 0 0 1 0 0 0 0 0 0 0 0]
             [0 0 0 0 0 0 0 0 1 0 0 0 0 0 0 0 0 0 0 0]
             [0 0 0 0 0 0 0 0 0 0 0 0 0 0 1 0 0 0 0 0]
             [0 0 0 0 0 0 0 0 0 0 0 0 0 1 0 0 0 0 0 0]
             [0 0 0 0 0 0 0 0 0 0 1 0 0 0 0 0 0 0 0 0]
             [0 0 0 0 0 0 0 0 0 0 0 0 0 0 0 1 0 0 0 0]
             [0 0 0 0 0 0 0 0 0 0 0 0 0 0 0 0 1 0 0 0]
             [0 0 0 0 0 0 0 0 0 0 0 0 0 0 0 0 0 0 0 1]
             [0 0 0 0 0 0 0 0 0 0 0 0 1 0 0 0 0 0 0 0]
             [0 0 0 0 0 0 0 0 0 0 0 0 0 0 0 0 0 1 0 0]
             [0 0 0 0 0 0 0 0 0 0 0 0 0 0 0 0 0 0 1 0]];
x = [[0 0 0 0 9 0 0 0 0 0 0 0 0 0 0 0 0 0 0 0]
             [0 0 0 0 0 6 0 0 0 0 0 0 0 0 0 0 0 0 0 0]
             [10 0 0 0 0 0 0 0 0 0 0 0 0 0 0 0 0 0 0 0]
             [0 7 0 0 0 0 0 0 0 0 0 0 0 0 0 0 0 0 0 0]
             [0 0 0 8 0 0 0 0 0 0 0 0 0 0 0 0 0 0 0 0]
             [0 0 0 0 0 0 0 0 0 5 0 0 0 0 0 0 0 0 0 0]
             [0 0 11 0 0 0 0 0 0 0 0 0 0 0 0 0 0 0 0 0]
             [0 0 0 0 0 0 12 0 0 0 0 0 0 0 0 0 0 0 0 0]
             [0 0 0 0 0 0 0 13 0 0 0 0 0 0 0 0 0 0 0 0]
             [0 0 0 0 0 0 0 0 0 0 0 4 0 0 0 0 0 0 0 0]
             [0 0 0 0 0 0 0 0 14 0 0 0 0 0 0 0 0 0 0 0]
             [0 0 0 0 0 0 0 0 0 0 0 0 0 0 3 0 0 0 0 0]
             [0 0 0 0 0 0 0 0 0 0 0 0 0 16 0 0 0 0 0 0]
             [0 0 0 0 0 0 0 0 0 0 15 0 0 0 0 0 0 0 0 0]
             [0 0 0 0 0 0 0 0 0 0 0 0 0 0 0 2 0 0 0 0]
             [0 0 0 0 0 0 0 0 0 0 0 0 0 0 0 0 1 0 0 0]
             [0 0 0 0 0 0 0 0 0 0 0 0 0 0 0 0 0 0 0 20]
             [0 0 0 0 0 0 0 0 0 0 0 0 17 0 0 0 0 0 0 0]
             [0 0 0 0 0 0 0 0 0 0 0 0 0 0 0 0 0 18 0 0]
             [0 0 0 0 0 0 0 0 0 0 0 0 0 0 0 0 0 0 19 0]];

<<< done, at 1,57s, took 0,00123501s

